; asyncpg :: corpus-study/repo_src/asyncpg/asyncpg/_testbase/fuzzer.py :: EVENT 'TCPFuzzingProxy.connectivity' :: naive encoding (verdict: unsat)
; Generated by snf-pipeline (encoder.py) -- run with any
; SMT-LIB2-compliant solver, e.g. `z3 asyncpg__corpus-study_repo_src_asyncpg_asyncpg__testbase_fuzzer.py__TCPFuzzingProxy.connectivity__naive.smt2`
; benchmark generated from python API
(set-info :status unknown)
(assert
 false)
(check-sat)
